DIMENSION: 101
12
80
68
77
3
79
33
81
9
51
20
30
70
31
88
7
82
48
47
36
49
19
11
62
10
90
32
63
64
46
8
45
17
84
5
60
83
18
52
27
101
53
58
40
21
73
72
74
22
41
75
56
39
23
67
25
55
4
54
24
29
78
34
35
71
66
65
50
76
28
26
13
94
6
96
99
59
92
37
98
85
93
61
16
91
100
97
95
87
2
57
15
43
42
14
44
86
38
89
69
1
